column=9;
row=9;
left=[0, 3, 2, 0, 0, 4, 4, 0, 0];
right=[0, 0, 3, 5, 0, 0, 0, 0, 4];
top=[0, 0, 0, 5, 0, 2, 0, 0, 6];
bottom=[0, 0, 0, 3, 0, 3, 2, 0, 2];
Board=[|0,0,0,2,7,6,0,0,1|0,6,0,3,8,0,7,0,5|7,0,0,5,0,0,3,0,0|0,0,7,8,6,0,1,0,3|0,8,0,0,0,0,2,0,7|0,0,0,0,5,9,0,0,0|0,0,0,0,0,5,0,1,0|2,1,0,0,0,8,0,7,9|5,0,6,1,0,0,0,3,0|]